benchmarks/VRPTW/TSPTW/solution/n60w160.002.txt.solution
1 42 33 6 60 20 57 45 14 10 49 53 2 21 48 56 25 41 59 19 24 37 4 50 15 46 55 52 9 27 35 16 26 43 13 38 17 12 23 51 8 34 31 5 58 11 3 54 32 39 47 61 18 36 22 44 7 40 29 30 28 
423
